c Output_time 26.03.2020 18:13:17_+0100 1585242797349787431
c ** Program information **
c program_name                          "QBRG_debug"
c version                               "0.3.20"
c date                                  "25.3.2020"
c gid_id                                "673970833836058123f633335630c185360d632e"
c author                                "Oliver Kullmann"
c url                                   "https://github.com/OKullmann/oklibrary/blob/master/Satisfiability/Transformers/Generators/Random/QBRG.cpp"
c ** Machine information **
c machine_name                          "chyna-Lenovo-G50-70"
c bogomips                              3791.08
c ** Compilation information **
c compiler_version                      "g++ 7.5.0"
c compilation_date                      "Mar_26_2020 11:16:30"
c compilation_options                   "--std=c++17 -pedantic -fmax-errors=5 -Wall -Wextra -g -D_GLIBCXX_DEBUG"
c NDEBUG                                0
c OPTIMIZE                              0
c ** Parameters **
c command-line                          "./QBRG_debug" "e40 a40 40" "366*1,1|2-2,1|3-3,1" "" "1,t" ""
c output                                "QuBlRaGe_120_366_1585242797255458691.qdimacs"
c options                               "filtered,renamed"
c num_quantifier_blocks                 3
c  quantifier_blocks                    1:e1-40 2:a41-80 3:e81-120
c num_clause-blocks                     1
c  clause-blocks                        366 * {1-40,1,1/2} | {41-80,1,1/2} | {81-120,1,1/2}
c num_e-seeds                           30+2=32
c  e-seeds                              1 0 1 0 4 120 2 40 1 40 0 40 1 366 3 1 1 1 1 2 2 2 1 1 2 3 3 1 1 2 1 1585242797255458047
p cnf 120 366
e 1 2 3 4 5 6 7 8 9 10 11 12 13 14 15 16 17 18 19 20 21 22 23 24 25 26 27 28 29 30 31 32 33 34 35 36 37 38 39 40 0
a 41 42 43 44 45 46 47 48 49 50 51 52 53 54 55 56 57 58 59 60 61 62 63 64 65 66 67 68 69 70 71 72 73 74 75 76 77 78 79 80 0
e 81 82 83 84 85 86 87 88 89 90 91 92 93 94 95 96 97 98 99 100 101 102 103 104 105 106 107 108 109 110 111 112 113 114 115 116 117 118 119 120 0
-20 43 -81 0
-14 48 -81 0
17 57 -81 0
-39 70 -81 0
-37 72 -81 0
29 -73 -81 0
-29 41 81 0
21 47 81 0
-37 48 81 0
-12 53 81 0
38 -72 81 0
22 68 -82 0
8 -71 -82 0
-14 -72 -82 0
-33 -41 82 0
-27 41 82 0
-33 51 82 0
32 58 82 0
8 -63 82 0
-30 65 82 0
-40 68 82 0
14 77 82 0
34 -41 -83 0
14 -42 -83 0
28 -42 -83 0
32 -48 -83 0
-30 48 -83 0
38 52 -83 0
-29 -53 -83 0
-3 -59 -83 0
-11 61 -83 0
26 -67 -83 0
-10 75 -83 0
-31 -79 -83 0
24 79 -83 0
27 -43 83 0
-7 -53 83 0
-4 54 83 0
9 -56 83 0
-17 42 -84 0
12 51 -84 0
18 -56 -84 0
40 77 -84 0
-3 -79 -84 0
30 -43 84 0
-18 -59 84 0
-3 76 84 0
8 80 84 0
-8 50 -85 0
-22 -64 -85 0
-16 -68 -85 0
-40 -41 85 0
-27 45 85 0
-25 -65 85 0
-37 -65 85 0
-26 46 -86 0
38 -78 -86 0
18 -44 -87 0
16 -62 -87 0
8 63 -87 0
16 63 -87 0
-19 65 -87 0
16 -42 87 0
-29 -46 87 0
14 -50 87 0
34 52 87 0
39 65 -88 0
-7 -44 88 0
-24 47 88 0
38 54 88 0
-12 -59 88 0
17 -64 88 0
29 65 88 0
-30 -75 88 0
-23 -55 -89 0
1 -65 -89 0
-15 65 -89 0
-33 -43 89 0
5 67 89 0
-23 -74 89 0
24 47 -90 0
15 65 -90 0
30 -66 -90 0
13 80 -90 0
-15 71 90 0
40 60 -91 0
-4 69 91 0
-22 79 91 0
-5 49 -92 0
33 -58 -92 0
-39 67 -92 0
-9 76 -92 0
-25 -43 92 0
-26 55 92 0
33 59 92 0
36 -72 92 0
-28 -79 92 0
36 -48 -93 0
-32 48 -93 0
38 -49 -93 0
-21 -57 -93 0
-1 80 -93 0
7 -53 93 0
-3 -60 93 0
-5 61 93 0
27 62 93 0
27 65 93 0
-25 -66 93 0
-40 70 93 0
-16 -44 -94 0
-17 -46 -94 0
-36 -64 -94 0
11 64 -94 0
9 44 94 0
-18 -50 94 0
33 -71 94 0
16 79 94 0
30 -70 -95 0
-35 -65 95 0
-11 -68 95 0
-11 70 95 0
-3 -50 -96 0
36 55 -96 0
10 -63 -96 0
-18 78 -96 0
-13 -80 -96 0
10 44 96 0
-18 65 96 0
3 -75 96 0
-29 -75 96 0
29 -78 96 0
-14 53 -97 0
-23 -58 -97 0
-21 -59 -97 0
-15 -65 -97 0
38 -69 -97 0
-32 71 -97 0
-5 -72 -97 0
19 -78 -97 0
27 -51 97 0
22 62 97 0
5 80 97 0
40 -55 -98 0
23 56 -98 0
37 -64 -98 0
35 -78 -98 0
-40 -48 98 0
-4 -44 -99 0
5 49 99 0
12 71 99 0
-10 77 99 0
-29 45 -100 0
-37 47 -100 0
-30 -59 -100 0
31 63 -100 0
-20 -73 -100 0
35 -49 100 0
39 53 100 0
12 56 100 0
-6 -74 100 0
-18 -74 100 0
-11 43 -101 0
5 -67 -101 0
37 -67 -101 0
24 -78 -101 0
1 78 -101 0
-13 -60 101 0
8 -62 101 0
-32 69 101 0
-38 69 101 0
-31 -72 101 0
-15 73 101 0
-11 -76 101 0
-19 48 -102 0
16 -50 -102 0
2 51 -102 0
-4 53 -102 0
-15 60 -102 0
36 66 -102 0
-23 70 -102 0
35 70 -102 0
33 49 102 0
2 -55 102 0
-8 55 102 0
10 -62 102 0
-9 -71 102 0
30 -76 102 0
-11 79 102 0
-32 -80 102 0
-14 41 -103 0
-39 45 -103 0
-2 46 -103 0
14 56 -103 0
-3 75 -103 0
16 -78 -103 0
31 79 -103 0
-40 65 103 0
-16 47 -104 0
-23 -49 -104 0
-32 50 -104 0
-19 -53 -104 0
10 55 -104 0
-5 60 -104 0
32 63 -104 0
-18 73 -104 0
-5 43 104 0
-23 -60 104 0
13 -62 104 0
32 65 104 0
-18 -75 104 0
-13 44 -105 0
16 -50 -105 0
-27 -50 -105 0
-35 51 -105 0
-33 55 -105 0
4 -64 -105 0
-29 -70 -105 0
-35 -70 -105 0
25 75 -105 0
3 41 105 0
-39 -52 105 0
-10 -63 105 0
-30 -68 105 0
-19 -72 105 0
-35 75 105 0
27 -44 -106 0
30 48 -106 0
-24 -68 -106 0
1 -73 -106 0
27 73 -106 0
-27 74 -106 0
-40 78 -106 0
13 -44 106 0
5 49 106 0
33 49 106 0
4 52 106 0
9 -63 106 0
19 69 106 0
33 73 106 0
-30 -46 -107 0
-6 -53 -107 0
-28 -56 -107 0
-23 -58 -107 0
31 58 -107 0
18 -74 -107 0
9 74 -107 0
-16 76 -107 0
17 41 107 0
-30 49 107 0
-8 -51 107 0
20 -58 107 0
33 60 107 0
23 -61 107 0
-11 79 107 0
20 41 -108 0
8 45 -108 0
8 51 -108 0
27 60 -108 0
20 -62 -108 0
5 75 -108 0
-26 -78 -108 0
-29 -60 108 0
25 -64 108 0
19 -69 -109 0
8 -75 -109 0
39 -78 -109 0
-13 43 109 0
33 46 109 0
-13 59 109 0
-12 76 109 0
-18 -48 -110 0
34 -52 -110 0
-35 70 -110 0
-30 -42 110 0
-9 -71 110 0
27 -72 110 0
-4 46 -111 0
-1 49 -111 0
-35 -59 -111 0
-18 75 -111 0
18 -45 111 0
-11 51 111 0
1 60 111 0
21 78 111 0
-26 -51 -112 0
-28 -54 -112 0
23 -57 -112 0
-12 -59 -112 0
-30 66 -112 0
-37 -76 -112 0
36 41 112 0
-20 52 112 0
-5 -54 112 0
-7 -42 -113 0
-28 48 -113 0
-23 -77 -113 0
19 -78 -113 0
-37 47 113 0
-2 -50 113 0
-16 50 113 0
-33 -66 113 0
-22 66 113 0
16 67 113 0
24 68 113 0
32 -78 113 0
-15 -48 -114 0
20 63 -114 0
18 -76 -114 0
-2 -48 114 0
27 -53 114 0
-20 55 114 0
2 -65 114 0
-35 -69 114 0
28 -46 -115 0
-4 -53 -115 0
-27 57 -115 0
-35 61 -115 0
-40 -61 115 0
2 70 115 0
39 -72 115 0
36 41 -116 0
-16 -71 -116 0
-37 -78 -116 0
-23 -79 -116 0
38 -41 116 0
-40 -45 116 0
21 -54 116 0
24 -57 116 0
-32 -67 116 0
-19 72 116 0
9 74 116 0
-8 -44 -117 0
-40 46 117 0
-14 -69 117 0
12 71 117 0
23 77 117 0
23 45 -118 0
-35 55 -118 0
-13 -69 -118 0
-40 -71 -118 0
34 72 -118 0
10 -75 -118 0
20 -78 -118 0
8 -79 -118 0
-11 49 118 0
-30 52 118 0
-27 71 118 0
-35 -41 -119 0
17 65 -119 0
1 -56 119 0
-40 -76 119 0
13 -41 -120 0
11 51 -120 0
-9 54 -120 0
21 54 -120 0
17 56 -120 0
25 57 -120 0
-17 -63 -120 0
39 63 -120 0
32 -64 -120 0
-4 71 -120 0
-26 -78 -120 0
5 78 -120 0
-31 41 120 0
-10 -62 120 0
-33 68 120 0
